14 47 16 15 9 10 13 17 
83 23 21 19 18 49 48 25 
92 31 29 27 26 32 93 
69 88 53 78 60 
61 81 90 
5 45 2 7 8 46 3 1 4 100 70 
65 52 99 57 22 20 24 
95 62 85 84 56 66 
42 44 43 37 35 
64 51 76 89 91 
98 73 79 6 55 68 
72 39 36 40 38 41 54 96 
71 67 94 
63 33 28 30 34 50 80 
82 12 11 86 74 
59 75 87 97 58 77 
